students = 400;
supervisors = 60;
timeslots = 15;
sessions = 7;
max_students_per_session = 6;
max_students_per_supervisor = 7;
max_supervisors_per_session = 6;
min_supervisors_per_session = 2;
availability = array2d(1..60, 1..15, [false, true, false, true, true, true, true,
    true, false, false, true, true, true, true, true, true, true,
    true, true, true, true, false, false, false, true, false, true,
    true, true, false, true, true, true, true, true, true, false,
    true, true, true, false, true, true, true, true, true, true,
    false, true, true, true, true, false, true, false, true, true,
    true, false, true, false, false, false, false, true, false, true,
    false, true, true, false, true, true, true, false, true, true,
    false, true, true, true, true, true, false, true, false, true,
    true, true, true, false, false, false, true, true, true, false,
    false, false, true, true, true, true, false, false, true, true,
    true, false, true, true, true, true, false, true, true, true,
    false, true, false, true, false, false, true, true, true, false,
    false, true, true, true, true, false, true, true, true, false,
    false, true, false, true, true, false, true, true, false, true,
    true, false, true, true, true, true, true, false, true, true,
    false, true, false, false, true, false, false, false, true, false,
    false, false, false, false, false, true, true, false, true, true,
    false, true, false, true, true, true, true, true, false, true,
    true, true, true, true, true, false, true, true, false, false,
    false, false, true, true, true, true, false, false, true, true,
    true, true, true, true, true, true, true, true, false, false,
    true, true, false, true, false, true, true, true, true, true,
    false, false, true, true, false, false, true, false, true, true,
    false, true, false, true, false, true, true, false, false, true,
    true, true, false, false, true, true, false, true, true, true,
    true, false, false, true, true, true, true, false, true, true,
    false, true, true, true, true, true, false, true, true, true,
    true, true, true, true, true, true, true, true, true, true, false,
    true, true, true, true, true, true, true, true, true, true, true,
    true, true, true, true, false, true, true, false, true, false,
    false, true, true, true, true, true, true, true, true, true, true,
    true, true, false, true, true, false, true, true, true, true,
    false, true, false, true, false, false, false, true, true, true,
    true, false, false, true, true, true, false, true, false, false,
    false, true, false, true, true, true, false, true, true, true,
    false, true, true, true, false, true, false, true, true, false,
    true, true, true, true, false, true, true, true, true, true, true,
    false, false, true, false, true, true, true, true, true, false,
    false, false, true, true, false, false, false, false, true, true,
    true, true, false, false, true, true, true, false, false, true,
    true, false, false, false, true, false, true, false, true, false,
    true, true, true, false, true, true, true, false, true, true,
    true, true, true, true, false, true, false, true, true, true,
    true, false, false, true, true, true, false, true, false, true,
    false, true, true, true, true, false, true, false, true, false,
    false, true, true, true, false, true, false, false, true, false,
    true, true, false, true, true, true, true, true, true, true, true,
    true, true, false, true, false, true, true, true, true, true,
    false, true, true, false, true, true, false, true, false, true,
    true, true, false, false, true, true, false, true, true, false,
    true, true, true, true, false, false, true, true, true, true,
    false, true, false, true, true, true, false, true, true, true,
    true, true, true, true, true, true, true, true, true, true, false,
    true, true, true, true, true, true, false, true, false, true,
    false, true, true, true, false, false, true, false, true, true,
    false, true, true, true, true, true, true, true, false, true,
    false, false, true, true, true, true, false, true, true, true,
    false, true, true, true, false, false, false, true, true, false,
    true, false, true, true, false, true, false, true, false, true,
    false, true, false, true, true, true, true, false, true, true,
    false, true, true, false, true, true, true, false, true, true,
    false, false, true, true, true, true, true, true, false, true,
    true, false, true, true, false, true, true, true, true, true,
    true, true, true, true, true, true, true, true, true, false,
    false, true, true, true, true, true, false, true, false, true,
    true, true, false, true, true, false, true, true, true, true,
    true, true, true, true, true, true, true, false, true, true, true,
    false, true, false, false, false, false, false, true, true, true,
    true, false, false, true, false, true, true, false, true, true,
    true, true, true, true, true, false, false, true, false, true,
    true, false, true, true, true, false, false, true, false, true,
    true, true, true, false, true, true, true, true, true, false,
    true, true, true, true, false, false, true, true, true, true,
    true, true, true, false, true, true, true, true, false, true,
    true, true, true, true, true, true, false, false, true, true,
    true, true, false, false, true, false, true, true, false, false,
    true, true, false, true, true, true, false, false, false, false,
    true, false, true, false, true, true, true, true, true, true,
    true, false, true, true, true, false, true, true, true, true,
    true, false, false, false, true, false, true, true, true, true,
    true, true, false, false, true, true, true, true, false, true,
    false, true, false, true, true, false, true, true, true, false,
    false, true, false, true, false, true, true, true, true, false,
    true, true, true, true, false, true, false, true, true, true,
    true, false, false, true, true, true, true, true, true, true,
    false, false, true, true, true, true, true, true, true, false,
    false, false, true, true, false, true, true, false, true, true,
    false, true, false, true, true, true, true, true, false, false,
    true, true, true, true, true, false]);